
Gurobi 9.5.0 (win64) logging started Tue Dec  7 12:36:34 2021

Set parameter LogFile to value "../results/logs/log_2021_12_07_12_26.csv_4_35.log"
Set parameter Method to value 3
Gurobi Optimizer version 9.5.0 build v9.5.0rc5 (win64)
Thread count: 6 physical cores, 12 logical processors, using up to 12 threads
Optimize a model with 2962 rows, 9882 columns and 30211 nonzeros
Model fingerprint: 0x390f795d
Variable types: 4941 continuous, 4941 integer (4941 binary)
Coefficient statistics:
  Matrix range     [1e+00, 4e+00]
  Objective range  [1e+00, 1e+00]
  Bounds range     [1e+00, 1e+00]
  RHS range        [1e+00, 4e+01]
Found heuristic solution: objective 36.0000000
Presolve removed 1475 rows and 7622 columns
Presolve time: 0.03s
Presolved: 1487 rows, 2260 columns, 8333 nonzeros
Variable types: 1293 continuous, 967 integer (941 binary)
Found heuristic solution: objective 48.0000000

Concurrent LP optimizer: primal simplex, dual simplex, and barrier
Showing barrier log only...

Root barrier log...

Ordering time: 0.00s

Barrier statistics:
 AA' NZ     : 6.354e+03
 Factor NZ  : 1.841e+04 (roughly 2 MB of memory)
 Factor Ops : 2.649e+05 (less than 1 second per iteration)
 Threads    : 1

                  Objective                Residual
Iter       Primal          Dual         Primal    Dual     Compl     Time
   0   5.81435913e+03  9.40989101e+03  2.58e+03 7.75e-01  3.60e+01     0s
   1   2.00215177e+03  1.02096898e+04  8.40e+02 7.11e-15  1.19e+01     0s
   2   4.20997841e+02  5.04133851e+03  6.07e+01 6.22e-15  1.39e+00     0s
   3   2.61688807e+02  9.87314857e+02  8.54e+00 6.22e-15  1.97e-01     0s
   4   2.35132654e+02  4.25428106e+02  8.47e-01 7.33e-15  3.77e-02     0s
   5   2.46436106e+02  3.44810130e+02  4.07e-01 5.86e-15  1.88e-02     0s
   6   2.57038630e+02  3.14787076e+02  2.20e-01 3.87e-15  1.08e-02     0s
   7   2.61906700e+02  2.93295240e+02  1.44e-01 5.33e-15  5.90e-03     0s
   8   2.66704042e+02  2.83705406e+02  7.64e-02 3.44e-15  3.17e-03     0s
   9   2.69814553e+02  2.79084324e+02  4.16e-02 4.92e-15  1.72e-03     0s
  10   2.71674672e+02  2.75983719e+02  2.14e-02 2.94e-15  8.05e-04     0s
  11   2.73098040e+02  2.75337786e+02  8.10e-03 2.53e-15  4.08e-04     0s
  12   2.73503899e+02  2.74461415e+02  4.61e-03 2.21e-15  1.78e-04     0s

Barrier performed 12 iterations in 0.08 seconds (0.04 work units)
Barrier solve interrupted - model solved by another algorithm


Solved with primal simplex

Root relaxation: objective 2.740420e+02, 1329 iterations, 0.03 seconds (0.02 work units)

    Nodes    |    Current Node    |     Objective Bounds      |     Work
 Expl Unexpl |  Obj  Depth IntInf | Incumbent    BestBd   Gap | It/Node Time

     0     0  274.04200    0  616   48.00000  274.04200   471%     -    0s
H    0     0                      91.0000000  274.04200   201%     -    0s
     0     0  144.08464    0  207   91.00000  144.08464  58.3%     -    0s
     0     0  141.14414    0  215   91.00000  141.14414  55.1%     -    0s
     0     0  140.80576    0  200   91.00000  140.80576  54.7%     -    0s
     0     0  140.75063    0  205   91.00000  140.75063  54.7%     -    0s
     0     0  129.23477    0  137   91.00000  129.23477  42.0%     -    0s
     0     0  127.97974    0  135   91.00000  127.97974  40.6%     -    0s
     0     0  127.67808    0  121   91.00000  127.67808  40.3%     -    0s
     0     0  127.64915    0  124   91.00000  127.64915  40.3%     -    0s
     0     0  123.32185    0  136   91.00000  123.32185  35.5%     -    0s
     0     0  122.61179    0  114   91.00000  122.61179  34.7%     -    0s
     0     0  122.42895    0  102   91.00000  122.42895  34.5%     -    0s
     0     0  121.28713    0  133   91.00000  121.28713  33.3%     -    0s
     0     0  120.49776    0  147   91.00000  120.49776  32.4%     -    0s
     0     0  120.42064    0  143   91.00000  120.42064  32.3%     -    0s
     0     0  119.88909    0  104   91.00000  119.88909  31.7%     -    0s
     0     0  119.76163    0  133   91.00000  119.76163  31.6%     -    0s
H    0     0                     101.0000000  119.53855  18.4%     -    0s
     0     0  119.53855    0  102  101.00000  119.53855  18.4%     -    0s
     0     0  119.53855    0  102  101.00000  119.53855  18.4%     -    1s
     0     2  119.53855    0  102  101.00000  119.53855  18.4%     -    1s
H  222   224                     103.0000000  118.74202  15.3%  55.4    1s
*  440   404              62     104.0000000  118.74202  14.2%  45.4    2s
H  536   400                     106.0000000  118.74202  12.0%  41.9    2s
H  978   566                     108.0000000  118.13274  9.38%  38.1    2s
H 1055   528                     109.0000000  118.13274  8.38%  37.8    3s
  1294   643  111.49947   29   75  109.00000  116.65640  7.02%  37.7    5s
H 1410   701                     110.0000000  114.79499  4.36%  44.4    9s
  1560   734  113.85384   24   95  110.00000  114.79499  4.36%  45.0   10s
H 1587   712                     111.0000000  114.79499  3.42%  45.2   10s
H 1593   679                     112.0000000  114.79499  2.50%  45.3   10s
H 1601   647                     113.0000000  114.79499  1.59%  45.2   10s

Cutting planes:
  Gomory: 101
  Lift-and-project: 86
  Implied bound: 9
  MIR: 558
  Flow cover: 224
  RLT: 88
  Relax-and-lift: 16

Explored 1897 nodes (81377 simplex iterations) in 10.74 seconds (9.12 work units)
Thread count was 12 (of 12 available processors)

Solution count 10: 113 112 111 ... 101

Optimal solution found (tolerance 1.00e-04)
Best objective 1.130000000000e+02, best bound 1.130000000000e+02, gap 0.0000%
